Start evaluate stage for setting _10000_5_4q_mnl_A900...

Evaluating using MNL with setting tag _10000_5_4q_mnl_A900.
 Results stored at /export/storage_covidvaccine/Result/MNL_partial/M5_K10000_4q/HighSchools/

The number of HighSchools opened: 4935
Set parameter ServerPassword
Set parameter CSQueueTimeout to value 120
Set parameter CSIdleTimeout to value 60
Set parameter ServerTimeout to value 10
Set parameter TokenServer to value "164.67.163.231"
Set parameter MIPFocus to value 3
Set parameter MIPGap to value 0.005
Set parameter TimeLimit to value 21600
Gurobi Optimizer version 10.0.1 build v10.0.1rc0 (linux64)

CPU model: AMD EPYC 7742 64-Core Processor, instruction set [SSE2|AVX|AVX2]
Thread count: 128 physical cores, 256 logical processors, using up to 32 threads

Optimize a model with 85812375 rows, 42903525 columns and 85845364 nonzeros
Model fingerprint: 0x2fb1f221
Coefficient statistics:
  Matrix range     [4e-01, 7e+03]
  Objective range  [4e-01, 7e+03]
  Bounds range     [1e+00, 1e+00]
  RHS range        [1e+00, 1e+04]
Presolve removed 394 rows and 0 columns (presolve time = 12s) ...
Presolve removed 85811581 rows and 42865211 columns (presolve time = 19s) ...
Presolve removed 85811581 rows and 42893508 columns (presolve time = 23s) ...
Presolve removed 85811581 rows and 42902731 columns (presolve time = 25s) ...
Presolve removed 85812375 rows and 42903525 columns (presolve time = 32s) ...
Presolve removed 85812375 rows and 42903525 columns
Presolve time: 37.56s
Presolve: All rows and columns removed
Iteration    Objective       Primal Inf.    Dual Inf.      Time
       0    3.4696898e+07   0.000000e+00   0.000000e+00     77s

Solved in 0 iterations and 76.57 seconds (51.24 work units)
Optimal objective  3.469689767e+07
Evaluation finished!

Evaluation with leftover fulfillments...

========================================================================================================================
Start filling the leftover demands to their 2 choice

Total demand fulfilled in previous round 34.6969, with leftover unfulfilled demand: 1.69919;    Resulting in a total of 36.39609, but b/c consideration set, the maximum possible demand in coming round is 1.17319;    Try to fill them with 4141 sites that has leftover capacity 14.65103

Set parameter MIPFocus to value 3
Set parameter MIPGap to value 0.005
Set parameter TimeLimit to value 21600
Gurobi Optimizer version 10.0.1 build v10.0.1rc0 (linux64)

CPU model: AMD EPYC 7742 64-Core Processor, instruction set [SSE2|AVX|AVX2]
Thread count: 128 physical cores, 256 logical processors, using up to 32 threads

Optimize a model with 85812375 rows, 42903525 columns and 85809474 nonzeros
Model fingerprint: 0x62b2518d
Coefficient statistics:
  Matrix range     [8e-02, 8e+03]
  Objective range  [8e-02, 8e+03]
  Bounds range     [1e+00, 1e+00]
  RHS range        [1e+00, 1e+04]
Presolve removed 4032 rows and 0 columns (presolve time = 14s) ...
Presolve removed 85812153 rows and 42901101 columns (presolve time = 23s) ...
Presolve removed 85812153 rows and 42902766 columns (presolve time = 27s) ...
Presolve removed 85812153 rows and 42903303 columns (presolve time = 30s) ...
Presolve removed 85812375 rows and 42903525 columns (presolve time = 36s) ...
Presolve removed 85812375 rows and 42903525 columns
Presolve time: 41.50s
Presolve: All rows and columns removed
Iteration    Objective       Primal Inf.    Dual Inf.      Time
       0    6.7459217e+05   0.000000e+00   0.000000e+00     96s

Solved in 0 iterations and 95.66 seconds (50.16 work units)
Optimal objective  6.745921725e+05
========================================================================================================================
Start filling the leftover demands to their 3 choice

Total demand fulfilled in previous round 0.67459, with leftover unfulfilled demand: 0.4986;    Resulting in a total of 1.17319, but b/c consideration set, the maximum possible demand in coming round is 0.07047;    Try to fill them with 3884 sites that has leftover capacity 13.97594

Set parameter MIPFocus to value 3
Set parameter MIPGap to value 0.005
Set parameter TimeLimit to value 21600
Gurobi Optimizer version 10.0.1 build v10.0.1rc0 (linux64)

CPU model: AMD EPYC 7742 64-Core Processor, instruction set [SSE2|AVX|AVX2]
Thread count: 128 physical cores, 256 logical processors, using up to 32 threads

Optimize a model with 85812375 rows, 42903525 columns and 85807386 nonzeros
Model fingerprint: 0x04212289
Coefficient statistics:
  Matrix range     [1e-01, 3e+03]
  Objective range  [1e-01, 3e+03]
  Bounds range     [1e+00, 1e+00]
  RHS range        [1e+00, 1e+04]
Presolve removed 5088 rows and 0 columns (presolve time = 6s) ...
Presolve removed 85812357 rows and 42903189 columns (presolve time = 11s) ...
Presolve removed 85812357 rows and 42903507 columns (presolve time = 16s) ...
Presolve removed 85812375 rows and 42903525 columns
Presolve time: 20.15s
Presolve: All rows and columns removed
Iteration    Objective       Primal Inf.    Dual Inf.      Time
       0    5.7939168e+04   0.000000e+00   0.000000e+00     45s

Solved in 0 iterations and 45.34 seconds (50.16 work units)
Optimal objective  5.793916832e+04
Finished evaluate stage for setting _10000_5_4q_mnl_A900!

